N = 5;
H = 6;
T = 2;

avail = array3d(1..N, 1..H, 1..T, [10, 10, 9, 1, 4, 9, 2, 8, 1, 1, 1, 3, 3, 0, 9, 6, 10, 9, 3, 0, 2, 9, 7, 6, 6, 5, 9, 6, 4, 0, 1, 5, 3, 0, 4, 2, 7, 9, 2, 3, 7, 5, 1, 5, 5, 0, 7, 4, 4, 6, 3, 4, 5, 8, 8, 8, 0, 8, 3, 10]);

r = array2d(1..H, 1..T, [1, 1, 0, 2, 3, 1, 2, 1, 1, 0, 0, 2]);
